Version identifier: 22.1.0.0 | 2022-03-09 | 1a383f8ce
CPXPARAM_Threads                                 1
CPXPARAM_MIP_Strategy_VariableSelect             3
CPXPARAM_TimeLimit                               600
Retaining values of one MIP start for possible repair.
Tried aggregator 2 times.
MIP Presolve eliminated 39 rows and 1 columns.
MIP Presolve added 28 rows and 7 columns.
MIP Presolve modified 135 coefficients.
Aggregator did 7 substitutions.
Reduced MIP has 903 rows, 2100 columns, and 25030 nonzeros.
Reduced MIP has 2100 binaries, 0 generals, 0 SOSs, and 0 indicators.
Presolve time = 0.04 sec. (57.30 ticks)
Found incumbent of value 1.000000 after 0.05 sec. (61.75 ticks)
Probing time = 0.01 sec. (7.99 ticks)
Tried aggregator 1 time.
Detecting symmetries...
MIP Presolve modified 14 coefficients.
Reduced MIP has 903 rows, 2100 columns, and 25429 nonzeros.
Reduced MIP has 2100 binaries, 0 generals, 0 SOSs, and 0 indicators.
Presolve time = 0.03 sec. (28.77 ticks)
Probing time = 0.01 sec. (8.05 ticks)
Clique table members: 593.
MIP emphasis: balance optimality and feasibility.
MIP search method: dynamic search.
Parallel mode: none, using 1 thread.
Root relaxation solution time = 0.11 sec. (114.42 ticks)

        Nodes                                         Cuts/
   Node  Left     Objective  IInf  Best Integer    Best Bound    ItCnt     Gap

*     0+    0                            1.0000     5050.0000              --- 
      0     0      100.0000   422        1.0000      100.0000     1362     --- 
      0     0      100.0000   400        1.0000      Cuts: 16     2128     --- 
      0     0      100.0000   204        1.0000   Cliques: 13     2476     --- 
      0     0      100.0000   352        1.0000      Cuts: 80     3363     --- 
      0     0      100.0000   198        1.0000   Cliques: 15     3711     --- 
      0     0      100.0000   301        1.0000      Cuts: 62     4943     --- 
Detecting symmetries...
*     0+    0                           52.0000      100.0000            92.31%
*     0+    0                           88.0000      100.0000            13.64%
      0     0        cutoff             88.0000      100.0000     4943   13.64%
*     0+    0                           89.0000      100.0000            12.36%
      0     0        cutoff             89.0000      100.0000     4943   12.36%
Repair heuristic succeeded.
Detecting symmetries...
      0     2      100.0000   169       89.0000      100.0000     4943   12.36%
Elapsed time = 6.69 sec. (6490.18 ticks, tree = 0.01 MB, solutions = 4)
      1     3      100.0000   301       89.0000      100.0000     8070   12.36%
      3     5      100.0000   394       89.0000      100.0000    10893   12.36%
      5     7      100.0000   287       89.0000      100.0000    11716   12.36%
      8    10      100.0000   303       89.0000      100.0000    12491   12.36%
     10    12      100.0000   280       89.0000      100.0000    12634   12.36%
     13    15      100.0000   285       89.0000      100.0000    13344   12.36%
     16    18      100.0000   285       89.0000      100.0000    14187   12.36%
     17    19      100.0000   337       89.0000      100.0000    15839   12.36%
     20    22      100.0000   286       89.0000      100.0000    16163   12.36%
     30    32      100.0000   231       89.0000      100.0000    18292   12.36%
Elapsed time = 10.85 sec. (10654.97 ticks, tree = 0.23 MB, solutions = 4)
     38    40      100.0000   258       89.0000      100.0000    21471   12.36%
     44    46      100.0000   335       89.0000      100.0000    25583   12.36%
     51    53      100.0000   264       89.0000      100.0000    28883   12.36%
     61    62      100.0000   197       89.0000      100.0000    32290   12.36%
     72    69       99.0000   162       89.0000      100.0000    40009   12.36%
     87    83       99.0000   121       89.0000      100.0000    42154   12.36%
    104    97       99.0000   163       89.0000      100.0000    44964   12.36%
    124   111       97.0000   155       89.0000      100.0000    49703   12.36%
    156   131       92.0000    89       89.0000      100.0000    52513   12.36%
    169   136       98.0000   148       89.0000      100.0000    59573   12.36%
Elapsed time = 21.37 sec. (20636.72 ticks, tree = 1.04 MB, solutions = 4)
    186   147       97.0000   212       89.0000      100.0000    62229   12.36%
    203   155    infeasible             89.0000      100.0000    67412   12.36%
    219   164       97.0000   103       89.0000      100.0000    73639   12.36%
    236   173       97.0000   100       89.0000      100.0000    79045   12.36%
    256   177       97.0000   123       89.0000      100.0000    85385   12.36%
    272   185       95.1111   134       89.0000      100.0000    91875   12.36%
    300   204       98.0000   173       89.0000      100.0000    95687   12.36%
    316   217       95.0000    67       89.0000      100.0000   100798   12.36%
    350   231       94.0000    77       89.0000      100.0000   104057   12.36%
    360   236       97.0000   144       89.0000      100.0000   111703   12.36%
Elapsed time = 32.12 sec. (30533.19 ticks, tree = 1.90 MB, solutions = 4)
    389   255      100.0000   216       89.0000      100.0000   116423   12.36%
    400   262       99.0000   147       89.0000      100.0000   122938   12.36%
    412   270       99.0000   169       89.0000      100.0000   128981   12.36%
    430   283       97.0000   129       89.0000      100.0000   133585   12.36%
*   440+  217                           96.0000      100.0000             4.17%
    443   218       97.0000   145       96.0000      100.0000   140015    4.17%
    460   231    infeasible             96.0000      100.0000   144744    4.17%
    476   237       97.0000   121       96.0000      100.0000   153044    4.17%
    491   240       97.0000    89       96.0000      100.0000   161727    4.17%
    510   243       97.0000   104       96.0000      100.0000   171412    4.17%
    522   250       99.0000   123       96.0000      100.0000   177310    4.17%
Elapsed time = 43.08 sec. (40600.24 ticks, tree = 2.00 MB, solutions = 5)
    534   261       98.0000   177       96.0000      100.0000   180173    4.17%
    546   262       99.7000   201       96.0000      100.0000   187942    4.17%
    558   268       97.0000   231       96.0000      100.0000   193114    4.17%
    567   271       98.0000   223       96.0000      100.0000   203281    4.17%
    581   281       98.0000   121       96.0000      100.0000   207623    4.17%
    601   287      100.0000   164       96.0000      100.0000   213372    4.17%
    610   295       99.0000   207       96.0000      100.0000   217424    4.17%
    624   307       97.0000   162       96.0000      100.0000   220513    4.17%
    640   311    infeasible             96.0000      100.0000   227209    4.17%
    659   322    infeasible             96.0000      100.0000   232003    4.17%
Elapsed time = 54.16 sec. (50787.51 ticks, tree = 2.62 MB, solutions = 5)
    670   328       99.0000   156       96.0000      100.0000   236856    4.17%
    681   337       98.0000   155       96.0000      100.0000   242368    4.17%
    696   346       98.0000   144       96.0000      100.0000   248570    4.17%
    714   356       97.0000   140       96.0000      100.0000   253809    4.17%
    732   361      100.0000   237       96.0000      100.0000   261098    4.17%
    746   371       98.0000   145       96.0000      100.0000   265026    4.17%
    769   382       98.0000   187       96.0000      100.0000   271497    4.17%
    788   396       97.0000   160       96.0000      100.0000   275655    4.17%
    811   396       99.0000   242       96.0000      100.0000   283910    4.17%
    826   409       97.0000   127       96.0000      100.0000   288067    4.17%
Elapsed time = 64.88 sec. (60674.31 ticks, tree = 3.37 MB, solutions = 5)
    848   416       98.0000   239       96.0000      100.0000   293860    4.17%
    861   426       97.0000   106       96.0000      100.0000   298530    4.17%
    881   436       97.0000   101       96.0000      100.0000   304072    4.17%
    897   444       98.8344   182       96.0000      100.0000   309823    4.17%
    910   455       97.0000   229       96.0000      100.0000   315212    4.17%
    927   469       97.0000   139       96.0000      100.0000   319826    4.17%
    946   476    infeasible             96.0000      100.0000   326229    4.17%
    963   491       97.0000   118       96.0000      100.0000   329399    4.17%
    984   498    infeasible             96.0000      100.0000   335559    4.17%
   1000   499       98.0000   216       96.0000      100.0000   344362    4.17%
Elapsed time = 75.71 sec. (70537.58 ticks, tree = 4.15 MB, solutions = 5)
   1009   502       99.0000   161       96.0000      100.0000   353598    4.17%
   1022   514       98.0000   202       96.0000      100.0000   356150    4.17%
   1035   521       99.0000   232       96.0000      100.0000   361418    4.17%

Performing restart 1

Repeating presolve.
Tried aggregator 1 time.
MIP Presolve eliminated 0 rows and 96 columns.
MIP Presolve modified 6 coefficients.
Reduced MIP has 903 rows, 2004 columns, and 18161 nonzeros.
Reduced MIP has 2004 binaries, 0 generals, 0 SOSs, and 0 indicators.
Presolve time = 0.01 sec. (9.72 ticks)
Tried aggregator 1 time.
Reduced MIP has 903 rows, 2004 columns, and 18161 nonzeros.
Reduced MIP has 2004 binaries, 0 generals, 0 SOSs, and 0 indicators.
Presolve time = 0.01 sec. (10.44 ticks)
Represolve time = 0.14 sec. (73.66 ticks)
   1037     0      100.0000   252       96.0000   Cliques: 16   364534    4.17%
   1037     0      100.0000   289       96.0000     Cuts: 187   365466    4.17%
   1037     0      100.0000   250       96.0000      Cuts: 31   366080    4.17%
   1037     0      100.0000   300       96.0000      Cuts: 64   366637    4.17%
   1037     0      100.0000   161       96.0000      Cuts: 12   366942    4.17%
   1037     0      100.0000   257       96.0000     Cuts: 128   367683    4.17%
   1037     0      100.0000   240       96.0000       Cuts: 6   368541    4.17%
   1037     0      100.0000   279       96.0000       Cuts: 5   368944    4.17%
   1037     2      100.0000   140       96.0000      100.0000   368944    4.17%
   1042     7      100.0000   262       96.0000      100.0000   374032    4.17%
   1050    15      100.0000   407       96.0000      100.0000   377163    4.17%
   1057    22      100.0000   339       96.0000      100.0000   379625    4.17%
   1066    31      100.0000   349       96.0000      100.0000   381715    4.17%
   1074    39      100.0000   351       96.0000      100.0000   382892    4.17%
   1084    49      100.0000   348       96.0000      100.0000   384743    4.17%
Elapsed time = 99.95 sec. (92895.17 ticks, tree = 0.33 MB, solutions = 5)
   1091    56      100.0000   392       96.0000      100.0000   386361    4.17%
   1098    63      100.0000   342       96.0000      100.0000   387328    4.17%
   1108    72      100.0000   195       96.0000      100.0000   393033    4.17%
   1120    82      100.0000   210       96.0000      100.0000   399360    4.17%
   1130    90      100.0000   143       96.0000      100.0000   403758    4.17%
   1137    94      100.0000   210       96.0000      100.0000   410118    4.17%
   1151   106      100.0000   201       96.0000      100.0000   415996    4.17%
   1166   117      100.0000   188       96.0000      100.0000   422402    4.17%
   1179   123       99.6865   240       96.0000      100.0000   432500    4.17%
   1193   132       99.0000   206       96.0000      100.0000   437578    4.17%
Elapsed time = 111.63 sec. (103763.53 ticks, tree = 0.98 MB, solutions = 5)
   1211   143       97.0000   169       96.0000      100.0000   441463    4.17%
   1223   153       99.0000   154       96.0000      100.0000   445360    4.17%
   1237   161       99.0000   157       96.0000      100.0000   452661    4.17%
   1254   172       98.4286   215       96.0000      100.0000   460187    4.17%
   1272   183       99.0000   172       96.0000      100.0000   467226    4.17%
   1287   194       99.0000    95       96.0000      100.0000   472683    4.17%
   1309   203    infeasible             96.0000      100.0000   480816    4.17%
   1326   205    infeasible             96.0000      100.0000   488821    4.17%
   1342   213       99.0000   146       96.0000      100.0000   492182    4.17%
   1417   242       99.0000   171       96.0000      100.0000   513551    4.17%
Elapsed time = 129.59 sec. (119967.55 ticks, tree = 1.86 MB, solutions = 5)
   1488   280       99.0000   104       96.0000      100.0000   532206    4.17%
   1555   323       99.0000   209       96.0000      100.0000   553446    4.17%
   1609   346       99.4722   255       96.0000      100.0000   578434    4.17%
   1650   355      100.0000   206       96.0000      100.0000   612168    4.17%
   1696   377    infeasible             96.0000      100.0000   634172    4.17%
   1752   405       97.0000   144       96.0000      100.0000   658658    4.17%
   1807   429       99.0000   118       96.0000      100.0000   679860    4.17%
   1870   453    infeasible             96.0000      100.0000   703363    4.17%
   1919   485    infeasible             96.0000      100.0000   727521    4.17%
   1974   495    infeasible             96.0000      100.0000   754539    4.17%
Elapsed time = 172.41 sec. (158518.76 ticks, tree = 4.03 MB, solutions = 5)
   2023   516       98.0000   213       96.0000      100.0000   774381    4.17%
   2070   556       97.0000   120       96.0000      100.0000   789027    4.17%
   2129   568       99.0000   306       96.0000      100.0000   823484    4.17%
   2175   611       99.0000   204       96.0000      100.0000   840976    4.17%
   2220   650       99.0000   189       96.0000      100.0000   863317    4.17%
   2237   665       99.0000   189       96.0000      100.0000   869646    4.17%
   2288   706       99.0000   182       96.0000      100.0000   890018    4.17%
   2358   730    infeasible             96.0000      100.0000   917148    4.17%
   2405   741       99.0000   276       96.0000      100.0000   944672    4.17%
   2451   748    infeasible             96.0000      100.0000   977316    4.17%
Elapsed time = 216.83 sec. (198306.73 ticks, tree = 6.30 MB, solutions = 5)
   2489   753       99.0000   166       96.0000      100.0000  1010498    4.17%
   2537   771       99.0000   283       96.0000      100.0000  1034032    4.17%
   2574   775    infeasible             96.0000      100.0000  1065238    4.17%
   2615   783       99.0000   303       96.0000      100.0000  1092410    4.17%
   2659   814    infeasible             96.0000      100.0000  1112587    4.17%
   2694   828       97.0000   174       96.0000      100.0000  1146871    4.17%
   2747   861       99.0000   207       96.0000      100.0000  1161139    4.17%
   2783   890      100.0000   315       96.0000      100.0000  1176356    4.17%
   2822   910       98.0000   142       96.0000      100.0000  1201671    4.17%
   2848   918      100.0000   180       96.0000      100.0000  1226932    4.17%
Elapsed time = 260.30 sec. (237462.35 ticks, tree = 7.54 MB, solutions = 5)
   2874   925    infeasible             96.0000      100.0000  1257349    4.17%
   2900   931       99.0000   204       96.0000      100.0000  1290901    4.17%
   2928   933    infeasible             96.0000      100.0000  1324364    4.17%
   2961   945       99.0000   149       96.0000      100.0000  1347992    4.17%
   3004   953       98.0000   109       96.0000      100.0000  1379159    4.17%
   3056   984       99.0000   273       96.0000      100.0000  1399168    4.17%
   3100  1002       97.0000   211       96.0000      100.0000  1423590    4.17%
   3164  1007       97.0000   172       96.0000      100.0000  1451985    4.17%
   3193  1017       98.0000   257       96.0000      100.0000  1480876    4.17%
   3223  1033       99.0000   255       96.0000      100.0000  1506578    4.17%
Elapsed time = 303.78 sec. (276561.03 ticks, tree = 8.35 MB, solutions = 5)
   3260  1048       99.0000   170       96.0000      100.0000  1533538    4.17%
   3304  1059       99.0000   163       96.0000      100.0000  1565423    4.17%
   3346  1065       99.0000   227       96.0000      100.0000  1599027    4.17%
   3393  1078      100.0000   200       96.0000      100.0000  1623336    4.17%
   3425  1094       98.0000   214       96.0000      100.0000  1649326    4.17%
   3461  1130       98.0000   208       96.0000      100.0000  1663971    4.17%
   3505  1171       97.0000   169       96.0000      100.0000  1682870    4.17%
   3540  1185    infeasible             96.0000      100.0000  1716278    4.17%
   3573  1192       99.0000   202       96.0000      100.0000  1745202    4.17%
   3609  1217       99.0000   209       96.0000      100.0000  1764497    4.17%
Elapsed time = 346.70 sec. (315164.21 ticks, tree = 9.21 MB, solutions = 5)
   3654  1259       99.0000   196       96.0000      100.0000  1779445    4.17%
   3712  1294       98.0000   180       96.0000      100.0000  1803852    4.17%
*  3737+  923                           97.0000      100.0000             3.09%
   3737   923       97.0000     0       97.0000      100.0000  1812369    3.09%
   3772   936    infeasible             97.0000      100.0000  1840082    3.09%
   3802   944    infeasible             97.0000      100.0000  1870487    3.09%
   3817   947    infeasible             97.0000      100.0000  1914506    3.09%
   3857   957       98.0000   128       97.0000      100.0000  1944512    3.09%
   3885   967       98.0000   277       97.0000      100.0000  1971890    3.09%
   3908   968    infeasible             97.0000      100.0000  2010146    3.09%
   3943   994       99.0000   115       97.0000      100.0000  2031890    3.09%
Elapsed time = 392.88 sec. (356627.76 ticks, tree = 7.73 MB, solutions = 6)
   3989  1011       98.0000   163       97.0000      100.0000  2057056    3.09%
   4031  1020       99.0000   239       97.0000      100.0000  2087936    3.09%
   4064  1025       99.0000   246       97.0000      100.0000  2117155    3.09%
   4112  1038       99.0000   192       97.0000      100.0000  2142339    3.09%
   4156  1054       99.0000   274       97.0000      100.0000  2173149    3.09%
   4181  1062       99.0000   245       97.0000      100.0000  2204815    3.09%
   4214  1073    infeasible             97.0000      100.0000  2236071    3.09%
   4244  1079    infeasible             97.0000      100.0000  2271095    3.09%
   4301  1092      100.0000   390       97.0000      100.0000  2281882    3.09%
   4329  1106    infeasible             97.0000      100.0000  2307779    3.09%
Elapsed time = 436.12 sec. (395534.05 ticks, tree = 8.76 MB, solutions = 6)
   4368  1101    infeasible             97.0000      100.0000  2340164    3.09%
   4403  1104    infeasible             97.0000      100.0000  2369430    3.09%
   4433  1106      100.0000   209       97.0000      100.0000  2400653    3.09%
   4472  1105    infeasible             97.0000      100.0000  2430149    3.09%
   4511  1106    infeasible             97.0000      100.0000  2457655    3.09%
   4564  1107      100.0000   219       97.0000      100.0000  2483673    3.09%
   4614  1105    infeasible             97.0000      100.0000  2513863    3.09%
   4643  1104    infeasible             97.0000      100.0000  2545051    3.09%
   4673  1112      100.0000   221       97.0000      100.0000  2569877    3.09%
   4705  1112      100.0000   209       97.0000      100.0000  2600885    3.09%
Elapsed time = 478.59 sec. (434304.67 ticks, tree = 8.82 MB, solutions = 6)
   4737  1112      100.0000   205       97.0000      100.0000  2630918    3.09%
   4774  1101    infeasible             97.0000      100.0000  2662253    3.09%
   4807  1123       99.0000   107       97.0000      100.0000  2682279    3.09%
   4850  1132    infeasible             97.0000      100.0000  2712420    3.09%
   4900  1140    infeasible             97.0000      100.0000  2745094    3.09%
   4951  1144    infeasible             97.0000      100.0000  2772456    3.09%
   4985  1160      100.0000   138       97.0000      100.0000  2801439    3.09%
   5033  1184       99.8333   270       97.0000      100.0000  2829705    3.09%
   5060  1190       98.0000   212       97.0000      100.0000  2868250    3.09%
   5095  1197       98.0000   214       97.0000      100.0000  2903546    3.09%
Elapsed time = 528.78 sec. (479531.18 ticks, tree = 9.64 MB, solutions = 6)
   5147  1203    infeasible             97.0000      100.0000  2935248    3.09%
   5206  1221       99.0000   192       97.0000      100.0000  2962068    3.09%
Starting limited solution polishing.
   5253  1226       99.8127   246       97.0000      100.0000  2992613    3.09%
   5297  1254       98.0000   169       97.0000      100.0000  3014103    3.09%
   5335  1269       99.0000   202       97.0000      100.0000  3040672    3.09%
   5371  1274       99.0000   272       97.0000      100.0000  3070592    3.09%
   5395  1285      100.0000   204       97.0000      100.0000  3100258    3.09%
   5433  1322       99.0000   221       97.0000      100.0000  3110420    3.09%
   5474  1360       98.0000   193       97.0000      100.0000  3120120    3.09%
   5511  1391    infeasible             97.0000      100.0000  3139996    3.09%
Elapsed time = 571.59 sec. (518189.95 ticks, tree = 11.56 MB, solutions = 6)
   5559  1426       98.0000   170       97.0000      100.0000  3158861    3.09%
   5617  1450    infeasible             97.0000      100.0000  3182339    3.09%
   5656  1461    infeasible             97.0000      100.0000  3216390    3.09%
   5683  1464    infeasible             97.0000      100.0000  3253842    3.09%
   5714  1469       98.0000   205       97.0000      100.0000  3289206    3.09%
   5753  1478       98.0000   167       97.0000      100.0000  3319769    3.09%

Clique cuts applied:  232
Cover cuts applied:  7
Mixed integer rounding cuts applied:  1
Zero-half cuts applied:  6
Gomory fractional cuts applied:  1

Root node processing (before b&c):
  Real time             =    6.68 sec. (6479.28 ticks)
Sequential b&c:
  Real time             =  593.33 sec. (537060.81 ticks)
                          ------------
Total (root+branch&cut) =  600.00 sec. (543540.09 ticks)
Primal:	97
Dual:	100
Status:	Feasible
Time:	600
Sequence:
	10
	7
	6
	2
	13
	4
	0
	13
	9
	16
	13
	2
	18
	7
	10
	3
	3
	12
	1
	2
	12
	18
	15
	0
	7
	15
	16
	3
	15
	12
	18
	3
	12
	15
	1
	0
	13
	2
	16
	8
	14
	0
	8
	11
	16
	5
	1
	11
	17
	6
	11
	17
	4
	14
	8
	19
	11
	5
	18
	12
	2
	18
	12
	15
	1
	7
	15
	4
	12
	8
	6
	11
	16
	5
	11
	19
	6
	11
	17
	6
	11
	17
	6
	11
	17
	6
	7
	10
	3
	7
	10
	4
	7
	10
	3
	7
	10
